N = 38;
MinK = 6;
Capacity = 100;

X = array1d(0..38, [39, 79, 41, 25, 63, 33, 69, 57, 53, 1, 79, 59, 1, 41, 23, 37, 85, 93, 85, 49, 55, 83, 93, 87, 31, 19, 41, 83, 9, 13, 43, 13, 71, 45, 93, 5, 81, 7, 7]);
Y = array1d(0..38, [19, 19, 79, 31, 93, 5, 17, 73, 75, 1, 73, 5, 37, 31, 73, 27, 93, 13, 45, 91, 43, 29, 49, 23, 23, 97, 9, 61, 7, 13, 37, 61, 51, 93, 55, 97, 11, 53, 41]);

Demands = [18, 16, 22, 24, 3, 19, 6, 6, 6, 12, 18, 16, 72, 7, 16, 23, 4, 22, 23, 7, 11, 11, 1, 22, 16, 15, 7, 5, 22, 9, 10, 11, 9, 3, 7, 15, 10, 2];
